;; sequence(s): A33174
;; terms: 366 731 1096 1461 1827 2192 2557 2922 3288 3653 4018 4383 4749 5114 5479 5844 6210 6575 6940 7305
;; small program: ((((1 + x) * loop(1 + ((x * x) * x), 2, 2)) + (x div 2)) div 2) + 1
;; fast program: ((((2 * loop(1 + ((x * x) * x), 2, 2)) * (1 + x)) + x) div (2 + 2)) + 1
(set-logic UFNIA)
(define-fun divf ((a Int) (b Int)) Int (ite (< 0 b) (div a b) (div (- a) (- b))))
(declare-fun f0 (Int) Int)
(declare-fun g0 () Int)
(declare-fun h0 () Int)
(declare-fun u0 (Int Int) Int)
(declare-fun v0 () Int)
(declare-fun small (Int) Int)
(declare-fun f1 (Int) Int)
(declare-fun g1 () Int)
(declare-fun h1 () Int)
(declare-fun u1 (Int Int) Int)
(declare-fun v1 () Int)
(declare-fun fast (Int) Int)
(assert (forall ((x Int)) (= (f0 x) (+ 1 (* (* x x) x)))))
(assert (= g0 2))
(assert (= h0 2))
(assert (forall ((x Int) (y Int)) (= (u0 x y) (ite (<= x 0) y (f0 (u0 (- x 1) y))))))
(assert (= v0 (u0 g0 h0)))
(assert (forall ((x Int)) (= (small x) (+ (divf (+ (* (+ 1 x) v0) (divf x 2)) 2) 1))))
(assert (forall ((x Int)) (= (f1 x) (+ 1 (* (* x x) x)))))
(assert (= g1 2))
(assert (= h1 2))
(assert (forall ((x Int) (y Int)) (= (u1 x y) (ite (<= x 0) y (f1 (u1 (- x 1) y))))))
(assert (= v1 (u1 g1 h1)))
(assert (forall ((x Int)) (= (fast x) (+ (divf (+ (* (* 2 v1) (+ 1 x)) x) (+ 2 2)) 1))))
(assert (exists ((c Int)) (and (>= c 0) (not (= (small c) (fast c))))))
(check-sat)
